language Essence 1.3

letting blksize_delta be
        function(1 --> 9, 2 --> 7, 3 --> 9, 4 --> 7, 5 --> 7, 6 --> 10, 7 --> 7, 8 --> 7, 9 --> 7, 10 --> 7)
letting maxcars be
        function(1 --> 9, 2 --> 9, 3 --> 10, 4 --> 10, 5 --> 9, 6 --> 9, 7 --> 9, 8 --> 10, 9 --> 9, 10 --> 9)
letting n_cars be 230
letting n_classes be 74
letting n_options be 10
letting quantity be
        function(1 --> 3, 2 --> 3, 3 --> 3, 4 --> 5, 5 --> 3, 6 --> 3, 7 --> 7, 8 --> 4, 9 --> 3, 10 --> 3, 11 --> 3,
                 12 --> 3, 13 --> 3, 14 --> 3, 15 --> 4, 16 --> 3, 17 --> 3, 18 --> 3, 19 --> 3, 20 --> 3, 21 --> 3,
                 22 --> 3, 23 --> 3, 24 --> 3, 25 --> 3, 26 --> 3, 27 --> 3, 28 --> 3, 29 --> 3, 30 --> 3, 31 --> 3,
                 32 --> 3, 33 --> 3, 34 --> 3, 35 --> 3, 36 --> 3, 37 --> 3, 38 --> 3, 39 --> 3, 40 --> 3, 41 --> 3,
                 42 --> 3, 43 --> 3, 44 --> 3, 45 --> 3, 46 --> 3, 47 --> 3, 48 --> 3, 49 --> 3, 50 --> 3, 51 --> 3,
                 52 --> 3, 53 --> 3, 54 --> 3, 55 --> 3, 56 --> 3, 57 --> 3, 58 --> 3, 59 --> 3, 60 --> 3, 61 --> 3,
                 62 --> 3, 63 --> 3, 64 --> 3, 65 --> 3, 66 --> 3, 67 --> 3, 68 --> 3, 69 --> 3, 70 --> 3, 71 --> 3,
                 72 --> 3, 73 --> 3, 74 --> 3)
letting usage be
        relation((1, 3), (2, 3), (2, 7), (2, 9), (3, 2), (3, 5), (3, 7), (3, 8), (3, 9), (4, 3), (4, 4), (4, 8), (5, 1),
                 (5, 8), (6, 10), (7, 2), (7, 6), (7, 8), (7, 9), (8, 5), (8, 8), (9, 1), (9, 2), (9, 5), (9, 9),
                 (9, 10), (10, 2), (10, 3), (11, 1), (11, 10), (12, 7), (12, 8), (13, 1), (13, 5), (13, 6), (13, 8),
                 (13, 9), (14, 3), (15, 10), (16, 3), (17, 2), (17, 5), (18, 3), (18, 7), (19, 2), (19, 5), (20, 1),
                 (20, 7), (21, 4), (21, 5), (21, 10), (22, 1), (22, 2), (22, 5), (22, 6), (23, 4), (23, 5), (23, 7),
                 (24, 1), (24, 4), (24, 5), (24, 8), (24, 9), (25, 8), (26, 3), (26, 6), (26, 7), (27, 2), (27, 6),
                 (27, 8), (28, 1), (28, 8), (28, 10), (29, 3), (29, 6), (30, 9), (31, 2), (31, 3), (31, 4), (32, 2),
                 (32, 6), (33, 1), (33, 3), (33, 9), (34, 1), (34, 7), (34, 8), (34, 10), (35, 6), (35, 9), (35, 10),
                 (36, 5), (36, 7), (36, 8), (37, 5), (37, 8), (38, 1), (38, 3), (38, 5), (38, 9), (38, 10), (39, 8),
                 (40, 10), (41, 2), (41, 4), (41, 5), (41, 10), (42, 2), (42, 7), (42, 8), (43, 2), (43, 5), (43, 8),
                 (44, 7), (45, 1), (45, 3), (45, 5), (46, 2), (46, 4), (46, 10), (47, 2), (47, 4), (47, 7), (47, 8),
                 (48, 5), (48, 6), (49, 6), (49, 8), (50, 1), (51, 6), (51, 7), (51, 10), (52, 1), (53, 3), (53, 7),
                 (54, 3), (54, 4), (54, 8), (55, 3), (55, 7), (56, 4), (56, 5), (56, 6), (56, 9), (57, 5), (57, 6),
                 (57, 9), (58, 7), (59, 4), (59, 5), (60, 2), (60, 3), (61, 4), (61, 9), (62, 5), (62, 10), (63, 7),
                 (64, 4), (64, 10), (65, 3), (66, 5), (67, 2), (67, 5), (67, 6), (68, 1), (68, 2), (68, 6), (68, 8),
                 (68, 9), (69, 3), (69, 6), (69, 8), (69, 9), (70, 1), (70, 2), (70, 8), (71, 2), (72, 1), (72, 2),
                 (72, 6), (72, 7), (72, 8), (72, 9), (73, 10), (74, 10))
$ Visualisation for usage
$  1  3
$  2  3
$  2  7
$  2  9
$  3  2
$  3  5
$  3  7
$  3  8
$  3  9
$  4  3
$  4  4
$  4  8
$  5  1
$  5  8
$  6 10
$  7  2
$  7  6
$  7  8
$  7  9
$  8  5
$  8  8
$  9  1
$  9  2
$  9  5
$  9  9
$  9 10
$ 10  2
$ 10  3
$ 11  1
$ 11 10
$ 12  7
$ 12  8
$ 13  1
$ 13  5
$ 13  6
$ 13  8
$ 13  9
$ 14  3
$ 15 10
$ 16  3
$ 17  2
$ 17  5
$ 18  3
$ 18  7
$ 19  2
$ 19  5
$ 20  1
$ 20  7
$ 21  4
$ 21  5
$ 21 10
$ 22  1
$ 22  2
$ 22  5
$ 22  6
$ 23  4
$ 23  5
$ 23  7
$ 24  1
$ 24  4
$ 24  5
$ 24  8
$ 24  9
$ 25  8
$ 26  3
$ 26  6
$ 26  7
$ 27  2
$ 27  6
$ 27  8
$ 28  1
$ 28  8
$ 28 10
$ 29  3
$ 29  6
$ 30  9
$ 31  2
$ 31  3
$ 31  4
$ 32  2
$ 32  6
$ 33  1
$ 33  3
$ 33  9
$ 34  1
$ 34  7
$ 34  8
$ 34 10
$ 35  6
$ 35  9
$ 35 10
$ 36  5
$ 36  7
$ 36  8
$ 37  5
$ 37  8
$ 38  1
$ 38  3
$ 38  5
$ 38  9
$ 38 10
$ 39  8
$ 40 10
$ 41  2
$ 41  4
$ 41  5
$ 41 10
$ 42  2
$ 42  7
$ 42  8
$ 43  2
$ 43  5
$ 43  8
$ 44  7
$ 45  1
$ 45  3
$ 45  5
$ 46  2
$ 46  4
$ 46 10
$ 47  2
$ 47  4
$ 47  7
$ 47  8
$ 48  5
$ 48  6
$ 49  6
$ 49  8
$ 50  1
$ 51  6
$ 51  7
$ 51 10
$ 52  1
$ 53  3
$ 53  7
$ 54  3
$ 54  4
$ 54  8
$ 55  3
$ 55  7
$ 56  4
$ 56  5
$ 56  6
$ 56  9
$ 57  5
$ 57  6
$ 57  9
$ 58  7
$ 59  4
$ 59  5
$ 60  2
$ 60  3
$ 61  4
$ 61  9
$ 62  5
$ 62 10
$ 63  7
$ 64  4
$ 64 10
$ 65  3
$ 66  5
$ 67  2
$ 67  5
$ 67  6
$ 68  1
$ 68  2
$ 68  6
$ 68  8
$ 68  9
$ 69  3
$ 69  6
$ 69  8
$ 69  9
$ 70  1
$ 70  2
$ 70  8
$ 71  2
$ 72  1
$ 72  2
$ 72  6
$ 72  7
$ 72  8
$ 72  9
$ 73 10
$ 74 10

